; --full-saturate-quant --inst-when=full-last-call --inst-no-entail --term-db-mode=relevant --random-seed=1 --lang=smt2 --tlimit 69
;(set-option :produce-unsat-cores true)
(set-logic ALL_SUPPORTED)
(declare-sort Node$ 0)
(declare-sort Node_set$ 0)
(declare-sort Node_node_bool_fun_fun$ 0)
(declare-sort Node_node_set_prod_bool_fun$ 0)
(declare-codatatypes () ((Node_llist$ (lNil$) (lCons$ (lhd$ Node$) (ltl$ Node_llist$)))))
(declare-datatypes () ((Node_node_set_prod$ (pair$ (fst$ Node$) (snd$ Node_set$)))))
(declare-fun f$ (Node_node_set_prod$) Node_llist$)
(declare-fun n$ () Node$)
(declare-fun ns$ () Node_set$)
(declare-fun bot$ () Node_set$)
(declare-fun lset$ (Node_llist$) Node_set$)
(declare-fun graph$ () Node_node_bool_fun_fun$)
(declare-fun lnull$ (Node_llist$) Bool)
(declare-fun member$ (Node$ Node_set$) Bool)
(declare-fun fun_app$ (Node_node_set_prod_bool_fun$ Node_node_set_prod$) Bool)
(declare-fun lfinite$ (Node_llist$) Bool)
(declare-fun connected$ (Node_node_bool_fun_fun$) Bool)
(assert (! (not (not (lfinite$ (f$ (pair$ n$ ns$))))) :named a0))
(assert (! (= ns$ bot$) :named a1))
(assert (! (member$ n$ (lset$ (f$ (pair$ n$ ns$)))) :named a2))
(assert (! (forall ((?v0 Node$) (?v1 Node_set$)) (not (lnull$ (f$ (pair$ ?v0 ?v1))))) :named a3))
(assert (! (forall ((?v0 Node$) (?v1 Node_set$) (?v2 Node$) (?v3 Node_set$)) (= (= (pair$ ?v0 ?v1) (pair$ ?v2 ?v3)) (and (= ?v0 ?v2) (= ?v1 ?v3)))) :named a4))
(assert (! (forall ((?v0 Node$) (?v1 Node_set$) (?v2 Node$) (?v3 Node_set$)) (= (= (pair$ ?v0 ?v1) (pair$ ?v2 ?v3)) (and (= ?v0 ?v2) (= ?v1 ?v3)))) :named a5))
(assert (! (connected$ graph$) :named a6))
(assert (! (forall ((?v0 Node$) (?v1 Node_set$)) (= (lhd$ (f$ (pair$ ?v0 ?v1))) ?v0)) :named a7))
(assert (! (forall ((?v0 Node_node_set_prod$)) (=> (forall ((?v1 Node$) (?v2 Node_set$)) (=> (= ?v0 (pair$ ?v1 ?v2)) false)) false)) :named a8))
(assert (! (forall ((?v0 Node_node_set_prod$)) (exists ((?v1 Node$) (?v2 Node_set$)) (= ?v0 (pair$ ?v1 ?v2)))) :named a9))
(assert (! (forall ((?v0 Node$) (?v1 Node_set$) (?v2 Node$) (?v3 Node_set$)) (=> (and (= (pair$ ?v0 ?v1) (pair$ ?v2 ?v3)) (=> (and (= ?v0 ?v2) (= ?v1 ?v3)) false)) false)) :named a10))
(assert (! (forall ((?v0 Node_node_set_prod$)) (=> (forall ((?v1 Node$) (?v2 Node_set$)) (=> (= ?v0 (pair$ ?v1 ?v2)) false)) false)) :named a11))
(assert (! (forall ((?v0 Node_node_set_prod_bool_fun$) (?v1 Node_node_set_prod$)) (=> (forall ((?v2 Node$) (?v3 Node_set$)) (fun_app$ ?v0 (pair$ ?v2 ?v3))) (fun_app$ ?v0 ?v1))) :named a12))
(check-sat)
;(get-unsat-core)
